N = 6;
M = 12;
Edge_Start = [1, 1, 2, 3, 4, 5, 2, 4, 3, 6, 5, 6];
Edge_End = [2, 4, 3, 6, 5, 6, 1, 1, 2, 3, 4, 5];
L = [11, 8, 8, 10, 1, 1, 11, 8, 8, 10, 1, 1];
T = [9, 1, 10, 2, 1, 9, 9, 1, 10, 2, 1, 9];
Lower_Bound = [0, 9, 13, 1, 2, 11];
Upper_Bound = [0, 9, 13, 1, 2, 11];
Start = 1;
End = 6;
Time = 11;
